NAME : local_0
TYPE : ATSP
DIMENSION : 42
EDGE_WEIGHT_TYPE : EXPLICIT
EDGE_WEIGHT_FORMAT : FULL_MATRIX
EDGE_WEIGHT_SECTION
0 10000000 10000000 10000000 10000000 10000000 688 363 403 10000000 10000000 557 10000000 10000000 10000000 568 10000000 10000000 10000000 670 10000000 10000000 10000000 10000000 710 10000000 681 10000000 620 202 10000000 10000000 430 10000000 10000000 10000000 742 10000000 757 839 10000000 898 
0 0 481 810 919 10000000 10000000 10000000 10000000 1041 10000000 10000000 10000000 10000000 10000000 10000000 812 10000000 10000000 10000000 10000000 10000000 10000000 10000000 10000000 10000000 10000000 10000000 10000000 10000000 10000000 10000000 10000000 10000000 10000000 934 10000000 10000000 10000000 10000000 10000000 10000000 
0 481 0 477 673 940 993 10000000 10000000 645 10000000 10000000 10000000 10000000 10000000 10000000 10000000 10000000 10000000 10000000 10000000 10000000 949 10000000 10000000 10000000 10000000 10000000 10000000 10000000 10000000 10000000 10000000 10000000 10000000 647 10000000 10000000 10000000 10000000 10000000 821 
0 810 477 0 804 908 646 10000000 10000000 652 10000000 10000000 10000000 10000000 10000000 10000000 10000000 10000000 10000000 10000000 10000000 950 837 10000000 10000000 10000000 10000000 10000000 10000000 10000000 10000000 10000000 896 10000000 10000000 268 937 10000000 10000000 10000000 10000000 446 
0 916 673 804 0 343 852 10000000 10000000 254 590 10000000 10000000 10000000 10000000 10000000 731 10000000 10000000 10000000 10000000 506 478 10000000 10000000 10000000 10000000 613 949 10000000 10000000 10000000 10000000 10000000 10000000 806 10000000 10000000 10000000 10000000 10000000 849 
0 10000000 940 908 343 0 658 10000000 10000000 343 545 10000000 10000000 10000000 877 10000000 845 1011 10000000 10000000 10000000 227 258 10000000 10000000 981 10000000 338 640 936 10000000 10000000 823 985 10000000 825 10000000 10000000 750 10000000 10000000 787 
0 10000000 993 646 818 660 0 987 10000000 658 1072 10000000 10000000 10000000 10000000 550 10000000 10000000 10000000 869 10000000 641 570 10000000 10000000 10000000 10000000 956 576 575 10000000 10000000 258 10000000 10000000 443 570 10000000 873 10000000 10000000 251 
0 10000000 10000000 10000000 10000000 10000000 987 0 271 10000000 10000000 222 861 946 10000000 929 10000000 10000000 10000000 975 10000000 10000000 10000000 10000000 529 10000000 324 10000000 697 412 10000000 10000000 743 10000000 10000000 10000000 10000000 10000000 699 812 10000000 10000000 
0 10000000 10000000 10000000 10000000 10000000 10000000 271 0 10000000 10000000 272 10000000 10000000 10000000 883 10000000 10000000 10000000 838 10000000 10000000 10000000 10000000 785 10000000 511 10000000 911 552 10000000 10000000 833 10000000 10000000 10000000 10000000 10000000 924 543 10000000 10000000 
0 1033 645 652 254 343 658 10000000 10000000 0 768 10000000 10000000 10000000 10000000 10000000 985 10000000 10000000 10000000 10000000 400 320 10000000 10000000 10000000 10000000 669 799 10000000 10000000 10000000 866 10000000 10000000 654 10000000 10000000 987 10000000 10000000 666 
0 10000000 10000000 10000000 590 545 1308 10000000 10000000 768 0 10000000 10000000 10000000 458 10000000 417 699 10000000 10000000 10000000 758 798 10000000 10000000 868 10000000 540 10000000 10000000 743 10000000 10000000 592 10000000 10000000 10000000 947 10000000 10000000 10000000 1351 
0 10000000 10000000 10000000 10000000 10000000 10000000 222 272 10000000 10000000 0 980 937 10000000 10000000 10000000 10000000 10000000 10000000 10000000 10000000 10000000 10000000 645 10000000 255 10000000 901 633 10000000 10000000 961 10000000 10000000 10000000 10000000 10000000 853 737 10000000 10000000 
0 10000000 10000000 10000000 10000000 10000000 10000000 887 10000000 10000000 10000000 1005 0 614 10000000 10000000 10000000 10000000 506 10000000 504 887 986 739 443 702 789 774 705 946 10000000 10000000 10000000 10000000 949 10000000 10000000 10000000 383 10000000 10000000 10000000 
0 10000000 10000000 10000000 10000000 10000000 10000000 946 10000000 10000000 10000000 937 614 0 10000000 10000000 10000000 10000000 10000000 10000000 721 10000000 10000000 10000000 569 10000000 695 10000000 997 10000000 10000000 10000000 10000000 10000000 10000000 10000000 10000000 10000000 761 10000000 10000000 10000000 
0 10000000 10000000 10000000 10000000 889 10000000 10000000 10000000 10000000 458 10000000 10000000 10000000 0 10000000 705 287 10000000 10000000 10000000 10000000 10000000 10000000 10000000 659 10000000 732 10000000 10000000 289 664 10000000 139 749 10000000 10000000 733 10000000 10000000 907 10000000 
0 10000000 10000000 10000000 10000000 10000000 550 929 883 10000000 10000000 10000000 10000000 10000000 10000000 0 10000000 10000000 10000000 347 10000000 10000000 10000000 10000000 10000000 10000000 10000000 10000000 919 632 10000000 10000000 437 10000000 10000000 770 179 915 10000000 10000000 1020 601 
0 812 10000000 10000000 731 845 10000000 10000000 10000000 1011 417 10000000 10000000 10000000 705 10000000 0 989 10000000 10000000 10000000 10000000 10000000 10000000 10000000 10000000 10000000 938 10000000 10000000 982 10000000 10000000 841 10000000 10000000 10000000 885 10000000 10000000 894 10000000 
0 10000000 10000000 10000000 10000000 1013 10000000 10000000 10000000 10000000 699 10000000 10000000 10000000 287 10000000 989 0 828 10000000 10000000 10000000 10000000 10000000 10000000 467 10000000 799 10000000 10000000 146 613 10000000 171 473 10000000 10000000 891 10000000 10000000 10000000 10000000 
0 10000000 10000000 10000000 10000000 10000000 10000000 10000000 10000000 10000000 10000000 10000000 506 10000000 10000000 10000000 10000000 828 0 10000000 514 10000000 10000000 525 921 363 10000000 765 10000000 10000000 968 10000000 10000000 964 605 10000000 10000000 10000000 781 10000000 10000000 10000000 
0 10000000 10000000 10000000 10000000 10000000 869 975 838 10000000 10000000 10000000 10000000 10000000 10000000 347 10000000 10000000 10000000 0 10000000 10000000 10000000 10000000 10000000 10000000 10000000 10000000 10000000 800 1043 753 722 1044 10000000 10000000 433 706 10000000 849 829 928 
0 10000000 10000000 10000000 10000000 10000000 10000000 10000000 10000000 10000000 10000000 10000000 504 721 10000000 10000000 10000000 10000000 514 10000000 0 10000000 10000000 313 880 836 10000000 10000000 10000000 10000000 10000000 10000000 10000000 10000000 1039 10000000 10000000 10000000 887 10000000 10000000 10000000 
0 10000000 10000000 950 506 227 641 10000000 10000000 400 758 10000000 887 10000000 10000000 10000000 10000000 10000000 10000000 10000000 10000000 0 119 10000000 857 10000000 10000000 396 478 824 10000000 10000000 739 10000000 10000000 873 10000000 10000000 596 10000000 10000000 786 
0 10000000 949 837 478 258 570 10000000 10000000 320 798 10000000 986 10000000 10000000 10000000 10000000 10000000 10000000 10000000 10000000 119 0 10000000 913 10000000 10000000 502 497 827 10000000 10000000 701 10000000 10000000 773 10000000 10000000 670 10000000 10000000 698 
0 10000000 10000000 10000000 10000000 10000000 10000000 10000000 10000000 10000000 10000000 10000000 739 10000000 10000000 10000000 10000000 10000000 525 10000000 313 10000000 10000000 0 10000000 862 10000000 10000000 10000000 10000000 10000000 10000000 10000000 10000000 976 10000000 10000000 10000000 10000000 10000000 10000000 10000000 
0 10000000 10000000 10000000 10000000 10000000 10000000 529 785 10000000 10000000 645 443 569 10000000 10000000 10000000 10000000 921 10000000 880 857 913 10000000 0 10000000 484 920 462 580 10000000 10000000 853 10000000 10000000 10000000 10000000 10000000 289 10000000 10000000 10000000 
0 10000000 10000000 10000000 10000000 981 10000000 10000000 10000000 10000000 868 10000000 702 10000000 659 10000000 10000000 467 363 10000000 836 10000000 10000000 862 10000000 0 10000000 674 10000000 10000000 609 10000000 10000000 608 359 10000000 10000000 10000000 840 10000000 10000000 10000000 
0 10000000 10000000 10000000 10000000 10000000 10000000 324 511 10000000 10000000 255 789 695 10000000 10000000 10000000 10000000 10000000 10000000 10000000 10000000 10000000 10000000 484 10000000 0 10000000 837 683 10000000 10000000 10000000 10000000 10000000 10000000 10000000 10000000 744 989 10000000 10000000 
0 10000000 10000000 10000000 613 338 929 10000000 10000000 669 540 10000000 774 10000000 732 10000000 938 799 765 10000000 10000000 396 502 10000000 920 674 10000000 0 680 1024 905 10000000 969 798 10000000 10000000 10000000 10000000 635 10000000 10000000 10000000 
0 10000000 10000000 10000000 949 640 576 697 911 799 10000000 901 705 997 10000000 919 10000000 10000000 10000000 10000000 10000000 478 497 10000000 462 10000000 837 680 0 419 10000000 10000000 504 10000000 10000000 983 10000000 10000000 322 10000000 10000000 818 
0 10000000 10000000 10000000 10000000 927 575 412 552 10000000 10000000 633 928 10000000 10000000 632 10000000 10000000 10000000 800 10000000 824 827 10000000 580 10000000 683 1041 419 0 10000000 10000000 339 10000000 10000000 10000000 786 10000000 591 10000000 10000000 812 
0 10000000 10000000 10000000 10000000 10000000 10000000 10000000 10000000 10000000 743 10000000 10000000 10000000 289 10000000 982 146 968 1060 10000000 10000000 10000000 10000000 10000000 609 10000000 905 10000000 10000000 0 473 10000000 150 562 10000000 10000000 770 10000000 10000000 979 10000000 
0 10000000 10000000 10000000 10000000 10000000 10000000 10000000 10000000 10000000 10000000 10000000 10000000 10000000 664 10000000 10000000 613 10000000 753 10000000 10000000 10000000 10000000 10000000 10000000 10000000 10000000 10000000 10000000 473 0 10000000 568 903 10000000 10000000 566 10000000 10000000 781 10000000 
0 10000000 10000000 896 10000000 828 258 743 833 866 10000000 961 10000000 10000000 10000000 437 10000000 10000000 10000000 722 10000000 739 701 10000000 853 10000000 10000000 971 504 339 10000000 10000000 0 10000000 10000000 680 536 10000000 776 10000000 10000000 476 
0 10000000 10000000 10000000 10000000 982 10000000 10000000 10000000 10000000 592 10000000 10000000 10000000 139 10000000 841 171 964 1084 10000000 10000000 10000000 10000000 10000000 608 10000000 798 10000000 10000000 150 568 10000000 0 643 10000000 10000000 746 10000000 10000000 940 10000000 
0 10000000 10000000 10000000 10000000 10000000 10000000 10000000 10000000 10000000 10000000 10000000 992 10000000 749 10000000 10000000 473 605 10000000 984 10000000 10000000 976 10000000 359 10000000 10000000 10000000 10000000 562 903 10000000 643 0 10000000 10000000 10000000 10000000 10000000 10000000 10000000 
0 921 647 268 808 821 443 10000000 10000000 654 10000000 10000000 10000000 10000000 10000000 770 10000000 10000000 10000000 10000000 10000000 873 773 10000000 10000000 10000000 10000000 10000000 983 10000000 10000000 10000000 680 10000000 10000000 0 676 10000000 10000000 10000000 10000000 205 
0 10000000 10000000 937 10000000 10000000 570 10000000 10000000 10000000 10000000 10000000 10000000 10000000 10000000 179 10000000 10000000 10000000 433 10000000 10000000 10000000 10000000 10000000 10000000 10000000 10000000 10000000 786 10000000 10000000 536 10000000 10000000 676 0 860 10000000 10000000 928 542 
0 10000000 10000000 10000000 10000000 10000000 10000000 10000000 10000000 10000000 947 10000000 10000000 10000000 733 959 885 891 10000000 706 10000000 10000000 10000000 10000000 10000000 10000000 10000000 10000000 10000000 10000000 770 566 10000000 746 10000000 10000000 823 0 10000000 10000000 224 10000000 
0 10000000 10000000 10000000 10000000 750 873 699 924 987 10000000 853 383 761 10000000 10000000 10000000 10000000 781 10000000 887 596 670 10000000 289 840 744 635 322 591 10000000 10000000 776 10000000 10000000 10000000 10000000 10000000 0 10000000 10000000 10000000 
0 10000000 10000000 10000000 10000000 10000000 10000000 812 543 10000000 10000000 737 10000000 10000000 10000000 10000000 10000000 10000000 10000000 849 10000000 10000000 10000000 10000000 10000000 10000000 989 10000000 10000000 10000000 10000000 10000000 10000000 10000000 10000000 10000000 10000000 10000000 10000000 0 10000000 10000000 
0 10000000 10000000 10000000 10000000 10000000 10000000 10000000 10000000 10000000 10000000 10000000 10000000 10000000 907 999 894 10000000 10000000 829 10000000 10000000 10000000 10000000 10000000 10000000 10000000 10000000 10000000 10000000 979 781 10000000 940 10000000 10000000 916 224 10000000 10000000 0 10000000 
0 10000000 10000000 10000000 10000000 10000000 10000000 10000000 10000000 10000000 10000000 10000000 10000000 10000000 10000000 10000000 10000000 10000000 10000000 10000000 10000000 10000000 10000000 10000000 10000000 10000000 10000000 10000000 10000000 10000000 10000000 10000000 10000000 10000000 10000000 10000000 10000000 10000000 10000000 10000000 10000000 0 
EOF